certificates/rado_a12_c220_N33.cnf
c Rad2 upper bound instance: x1 + 12*x2 - x3 = 220, interval [1,33]
p cnf 33 180
1 9 19 0
-1 -9 -19 0
1 20 21 0
-1 -20 -21 0
1 21 33 0
-1 -21 -33 0
2 10 19 0
-2 -10 -19 0
2 20 22 0
-2 -20 -22 0
3 11 19 0
-3 -11 -19 0
3 20 23 0
-3 -20 -23 0
4 12 19 0
-4 -12 -19 0
4 20 24 0
-4 -20 -24 0
1 5 18 0
-1 -5 -18 0
5 13 19 0
-5 -13 -19 0
5 20 25 0
-5 -20 -25 0
2 6 18 0
-2 -6 -18 0
6 14 19 0
-6 -14 -19 0
6 20 26 0
-6 -20 -26 0
3 7 18 0
-3 -7 -18 0
7 15 19 0
-7 -15 -19 0
7 20 27 0
-7 -20 -27 0
4 8 18 0
-4 -8 -18 0
8 16 19 0
-8 -16 -19 0
8 20 28 0
-8 -20 -28 0
5 9 18 0
-5 -9 -18 0
9 17 19 0
-9 -17 -19 0
9 20 29 0
-9 -20 -29 0
6 10 18 0
-6 -10 -18 0
10 18 19 0
-10 -18 -19 0
10 20 30 0
-10 -20 -30 0
7 11 18 0
-7 -11 -18 0
11 19 0
-11 -19 0
11 20 31 0
-11 -20 -31 0
8 12 18 0
-8 -12 -18 0
12 19 20 0
-12 -19 -20 0
12 20 32 0
-12 -20 -32 0
9 13 18 0
-9 -13 -18 0
13 19 21 0
-13 -19 -21 0
13 20 33 0
-13 -20 -33 0
10 14 18 0
-10 -14 -18 0
14 19 22 0
-14 -19 -22 0
11 15 18 0
-11 -15 -18 0
15 19 23 0
-15 -19 -23 0
12 16 18 0
-12 -16 -18 0
16 19 24 0
-16 -19 -24 0
1 17 0
-1 -17 0
13 17 18 0
-13 -17 -18 0
17 19 25 0
-17 -19 -25 0
2 17 18 0
-2 -17 -18 0
14 18 0
-14 -18 0
18 19 26 0
-18 -19 -26 0
3 17 19 0
-3 -17 -19 0
15 18 19 0
-15 -18 -19 0
19 27 0
-19 -27 0
4 17 20 0
-4 -17 -20 0
16 18 20 0
-16 -18 -20 0
19 20 28 0
-19 -20 -28 0
5 17 21 0
-5 -17 -21 0
17 18 21 0
-17 -18 -21 0
19 21 29 0
-19 -21 -29 0
6 17 22 0
-6 -17 -22 0
18 22 0
-18 -22 0
19 22 30 0
-19 -22 -30 0
7 17 23 0
-7 -17 -23 0
18 19 23 0
-18 -19 -23 0
19 23 31 0
-19 -23 -31 0
8 17 24 0
-8 -17 -24 0
18 20 24 0
-18 -20 -24 0
19 24 32 0
-19 -24 -32 0
9 17 25 0
-9 -17 -25 0
18 21 25 0
-18 -21 -25 0
19 25 33 0
-19 -25 -33 0
10 17 26 0
-10 -17 -26 0
18 22 26 0
-18 -22 -26 0
11 17 27 0
-11 -17 -27 0
18 23 27 0
-18 -23 -27 0
12 17 28 0
-12 -17 -28 0
18 24 28 0
-18 -24 -28 0
1 16 29 0
-1 -16 -29 0
13 17 29 0
-13 -17 -29 0
18 25 29 0
-18 -25 -29 0
2 16 30 0
-2 -16 -30 0
14 17 30 0
-14 -17 -30 0
18 26 30 0
-18 -26 -30 0
3 16 31 0
-3 -16 -31 0
15 17 31 0
-15 -17 -31 0
18 27 31 0
-18 -27 -31 0
4 16 32 0
-4 -16 -32 0
16 17 32 0
-16 -17 -32 0
18 28 32 0
-18 -28 -32 0
5 16 33 0
-5 -16 -33 0
17 33 0
-17 -33 0
18 29 33 0
-18 -29 -33 0
