certificates/rado_a12_c220_N33.drat
-33 0
17 0
-1 0
21 0
-5 0
-18 0
0
